c Created with the Wolfram Language : www.wolfram.com
c 
p edge 90 599
e 3 4
e 6 7
e 6 10
e 5 11
e 10 11
e 10 12
e 5 13
e 6 13
e 5 14
e 9 14
e 3 15
e 10 15
e 4 16
e 12 16
e 5 17
e 2 18
e 13 18
e 9 19
e 17 19
e 18 19
e 18 21
e 7 22
e 21 22
e 7 23
e 13 23
e 20 23
e 1 24
e 13 24
e 2 25
e 19 25
e 24 25
e 8 26
e 14 26
e 18 26
e 23 26
e 9 27
e 24 27
e 26 27
e 25 28
e 8 29
e 9 29
e 14 29
e 18 29
e 19 29
e 23 29
e 2 30
e 14 30
e 4 31
e 13 31
e 15 31
e 24 31
e 26 31
e 29 31
e 2 32
e 3 32
e 5 32
e 19 32
e 24 32
e 30 32
e 2 33
e 8 33
e 10 33
e 13 33
e 18 33
e 21 33
e 23 33
e 30 33
e 6 34
e 8 34
e 17 34
e 5 35
e 6 35
e 9 35
e 11 35
e 14 35
e 32 35
e 10 36
e 22 36
e 27 36
e 35 36
e 14 37
e 15 37
e 17 37
e 19 37
e 26 37
e 9 38
e 12 38
e 13 38
e 17 38
e 32 38
e 35 38
e 9 39
e 32 39
e 37 39
e 38 39
e 8 40
e 11 40
e 19 40
e 20 40
e 37 40
e 1 41
e 3 41
e 12 41
e 13 41
e 21 41
e 22 41
e 28 41
e 35 41
e 4 42
e 5 42
e 6 42
e 23 42
e 25 42
e 32 42
e 34 42
e 35 42
e 41 42
e 2 43
e 6 43
e 15 43
e 21 43
e 28 43
e 34 43
e 35 43
e 3 44
e 7 44
e 8 44
e 14 44
e 20 44
e 21 44
e 28 44
e 34 44
e 36 44
e 1 45
e 3 45
e 4 45
e 6 45
e 18 45
e 20 45
e 21 45
e 22 45
e 27 45
e 40 45
e 42 45
e 43 45
e 22 46
e 24 46
e 34 46
e 1 47
e 2 47
e 4 47
e 10 47
e 12 47
e 14 47
e 30 47
e 31 47
e 37 47
e 38 47
e 39 47
e 42 47
e 11 48
e 13 48
e 19 48
e 24 48
e 25 48
e 26 48
e 29 48
e 37 48
e 7 49
e 27 49
e 42 49
e 46 49
e 2 50
e 3 50
e 8 50
e 10 50
e 16 50
e 20 50
e 28 50
e 34 50
e 9 51
e 11 51
e 16 51
e 19 51
e 24 51
e 35 51
e 36 51
e 39 51
e 40 51
e 43 51
e 50 51
e 1 52
e 4 52
e 28 52
e 29 52
e 31 52
e 40 52
e 44 52
e 50 52
e 9 53
e 16 53
e 25 53
e 28 53
e 29 53
e 33 53
e 45 53
e 12 54
e 25 54
e 39 54
e 40 54
e 46 54
e 52 54
e 20 55
e 23 55
e 28 55
e 30 55
e 33 55
e 45 55
e 4 56
e 6 56
e 8 56
e 14 56
e 28 56
e 32 56
e 33 56
e 35 56
e 53 56
e 7 57
e 9 57
e 14 57
e 18 57
e 26 57
e 27 57
e 36 57
e 40 57
e 41 57
e 49 57
e 56 57
e 15 58
e 31 58
e 34 58
e 36 58
e 46 58
e 7 59
e 14 59
e 28 59
e 41 59
e 51 59
e 53 59
e 55 59
e 16 60
e 26 60
e 36 60
e 38 60
e 46 60
e 47 60
e 52 60
e 56 60
e 7 61
e 14 61
e 15 61
e 16 61
e 18 61
e 22 61
e 24 61
e 30 61
e 33 61
e 34 61
e 42 61
e 43 61
e 46 61
e 53 61
e 4 62
e 16 62
e 20 62
e 21 62
e 22 62
e 23 62
e 40 62
e 44 62
e 46 62
e 57 62
e 1 63
e 5 63
e 22 63
e 29 63
e 32 63
e 38 63
e 47 63
e 57 63
e 4 64
e 7 64
e 25 64
e 26 64
e 28 64
e 30 64
e 31 64
e 33 64
e 39 64
e 44 64
e 45 64
e 48 64
e 61 64
e 63 64
e 3 65
e 9 65
e 10 65
e 12 65
e 16 65
e 17 65
e 35 65
e 39 65
e 51 65
e 53 65
e 54 65
e 55 65
e 56 65
e 63 65
e 64 65
e 6 66
e 10 66
e 29 66
e 40 66
e 52 66
e 55 66
e 60 66
e 65 66
e 8 67
e 9 67
e 17 67
e 19 67
e 21 67
e 33 67
e 43 67
e 55 67
e 56 67
e 9 68
e 15 68
e 16 68
e 30 68
e 32 68
e 41 68
e 42 68
e 43 68
e 8 69
e 22 69
e 23 69
e 27 69
e 28 69
e 43 69
e 54 69
e 61 69
e 68 69
e 7 70
e 12 70
e 24 70
e 26 70
e 30 70
e 49 70
e 52 70
e 59 70
e 68 70
e 8 71
e 17 71
e 22 71
e 29 71
e 47 71
e 62 71
e 70 71
e 15 72
e 16 72
e 17 72
e 38 72
e 46 72
e 58 72
e 60 72
e 4 73
e 15 73
e 21 73
e 32 73
e 36 73
e 43 73
e 44 73
e 46 73
e 50 73
e 57 73
e 59 73
e 68 73
e 6 74
e 21 74
e 24 74
e 31 74
e 42 74
e 47 74
e 68 74
e 6 75
e 8 75
e 14 75
e 16 75
e 20 75
e 30 75
e 33 75
e 36 75
e 37 75
e 39 75
e 54 75
e 61 75
e 71 75
e 73 75
e 17 76
e 19 76
e 21 76
e 30 76
e 32 76
e 39 76
e 54 76
e 59 76
e 64 76
e 65 76
e 71 76
e 7 77
e 33 77
e 38 77
e 40 77
e 42 77
e 43 77
e 53 77
e 54 77
e 56 77
e 59 77
e 74 77
e 5 78
e 14 78
e 18 78
e 20 78
e 23 78
e 41 78
e 45 78
e 53 78
e 59 78
e 60 78
e 63 78
e 64 78
e 75 78
e 7 79
e 14 79
e 16 79
e 17 79
e 18 79
e 23 79
e 24 79
e 36 79
e 47 79
e 54 79
e 57 79
e 3 80
e 13 80
e 19 80
e 27 80
e 30 80
e 40 80
e 43 80
e 46 80
e 58 80
e 62 80
e 68 80
e 69 80
e 70 80
e 71 80
e 75 80
e 3 81
e 4 81
e 5 81
e 6 81
e 10 81
e 13 81
e 14 81
e 19 81
e 24 81
e 39 81
e 44 81
e 53 81
e 55 81
e 59 81
e 75 81
e 4 82
e 6 82
e 7 82
e 12 82
e 24 82
e 33 82
e 38 82
e 52 82
e 57 82
e 59 82
e 60 82
e 61 82
e 67 82
e 71 82
e 12 83
e 19 83
e 34 83
e 36 83
e 44 83
e 48 83
e 52 83
e 62 83
e 67 83
e 68 83
e 76 83
e 11 84
e 15 84
e 18 84
e 42 84
e 43 84
e 48 84
e 60 84
e 64 84
e 77 84
e 82 84
e 4 85
e 7 85
e 23 85
e 26 85
e 32 85
e 35 85
e 48 85
e 60 85
e 64 85
e 66 85
e 71 85
e 77 85
e 2 86
e 9 86
e 16 86
e 36 86
e 42 86
e 55 86
e 66 86
e 80 86
e 82 86
e 84 86
e 7 87
e 17 87
e 18 87
e 21 87
e 22 87
e 23 87
e 33 87
e 35 87
e 36 87
e 71 87
e 83 87
e 85 87
e 5 88
e 6 88
e 10 88
e 12 88
e 14 88
e 27 88
e 57 88
e 63 88
e 64 88
e 83 88
e 12 89
e 16 89
e 22 89
e 26 89
e 29 89
e 43 89
e 47 89
e 50 89
e 52 89
e 54 89
e 55 89
e 61 89
e 65 89
e 68 89
e 80 89
e 84 89
e 2 90
e 4 90
e 15 90
e 16 90
e 18 90
e 22 90
e 31 90
e 38 90
e 41 90
e 42 90
e 48 90
e 51 90
e 58 90
e 64 90
e 67 90
e 71 90
e 76 90
e 86 90
e 87 90
